
Gurobi 10.0.3 (win64, Python) logging started Tue Jan 16 01:42:29 2024

Set parameter Username
Set parameter LogFile to value "gurobi.log"
Academic license - for non-commercial use only - expires 2024-09-16
Read LP format model from file few3.lp
Reading time = 0.03 seconds
: 4153 rows, 1192 columns, 16528 nonzeros
Gurobi Optimizer version 10.0.3 build v10.0.3rc0 (win64)

CPU model: Intel(R) Core(TM) i7-8565U CPU @ 1.80GHz, instruction set [SSE2|AVX|AVX2]
Thread count: 4 physical cores, 8 logical processors, using up to 8 threads

Optimize a model with 4153 rows, 1192 columns and 16528 nonzeros
Model fingerprint: 0x58767b4b
Variable types: 0 continuous, 1192 integer (1192 binary)
Coefficient statistics:
  Matrix range     [1e+00, 8e+00]
  Objective range  [2e+00, 3e+00]
  Bounds range     [1e+00, 1e+00]
  RHS range        [1e+00, 7e+00]
Presolve time: 0.04s
Presolved: 4153 rows, 1192 columns, 16528 nonzeros
Variable types: 0 continuous, 1192 integer (1192 binary)
Found heuristic solution: objective 15.0000000

Root relaxation: objective 5.000000e-02, 580 iterations, 0.03 seconds (0.03 work units)

    Nodes    |    Current Node    |     Objective Bounds      |     Work
 Expl Unexpl |  Obj  Depth IntInf | Incumbent    BestBd   Gap | It/Node Time

     0     0    0.05000    0   72   15.00000    0.05000   100%     -    0s
H    0     0                      14.0000000    0.05000   100%     -    0s
     0     0    2.00000    0  335   14.00000    2.00000  85.7%     -    0s
     0     0    2.00000    0  338   14.00000    2.00000  85.7%     -    0s
H    0     0                      12.0000000    2.00000  83.3%     -    0s
     0     0    2.00000    0  342   12.00000    2.00000  83.3%     -    0s
H    0     0                      11.0000000    2.00000  81.8%     -    0s
     0     0    2.00000    0  198   11.00000    2.00000  81.8%     -    0s
H    0     0                      10.0000000    2.00000  80.0%     -    0s
     0     0    2.00000    0  165   10.00000    2.00000  80.0%     -    0s
     0     0    2.02197    0   44   10.00000    2.02197  79.8%     -    0s
     0     0    2.03333    0  389   10.00000    2.03333  79.7%     -    0s
H    0     0                       4.0000000    2.03566  49.1%     -    1s
     0     0    2.38095    0  427    4.00000    2.38095  40.5%     -    1s
     0     0    4.00000    0  530    4.00000    4.00000  0.00%     -    1s

Cutting planes:
  Gomory: 1
  Cover: 8
  Implied bound: 2
  Clique: 6
  MIR: 19
  RLT: 8

Explored 1 nodes (9110 simplex iterations) in 1.41 seconds (0.94 work units)
Thread count was 8 (of 8 available processors)

Solution count 6: 4 10 11 ... 15

Optimal solution found (tolerance 1.00e-04)
Best objective 4.000000000000e+00, best bound 4.000000000000e+00, gap 0.0000%
